25
15
10 11 9 13 3 22 24
11 0 14 19 24 2 3 1 6 15 9 13 10 7 22 16 21 8 18 23
15 3 22 6 24 7
18 15 9 17 2 12 13 6 5 20 11 10 14 4 16 23 22 0 24 3 8 21 7 19
1 14 21 20 15
24 19 2 7 11 3 15 8 20 16 13 4 1 21 14
11 24 2 6 1 4 3 5 12
2 10 18 8
15 11 13
1 24 17 11 14 5 13 16 8 23 0 20 6 19 10 21
12 23 20
13 24 22 14 12 18 11 10 6 21 16 15 8 5 7 0 3 20 23 1 9 4 17
7 14 1 0 2 13 21 9 3 17 15 23 12 18 16 10 8 24 22 4 20 11 19
10 16 7 3 14 5 17 21 8 18 19 9 12 13 22 1 23
20 2 6 19 23
